-- Configuring done
-- Generating done
-- Build files have been written to: /home/arthur/Documents/scip/repair/build
Scanning dependencies of target repair
[ 50%] Building C object CMakeFiles/repair.dir/src/cmain.c.o
[100%] Linking C executable repair
[100%] Built target repair
SCIP version 6.0.1 [precision: 8 byte] [memory: block] [mode: optimized] [LP solver: SoPlex 4.0.1] [GitHash: a27ecc0]
Copyright (C) 2002-2019 Konrad-Zuse-Zentrum fuer Informationstechnik Berlin (ZIB)

read problem <bell5.lp> ...

original problem has 104 variables (30 bin, 28 int, 0 impl, 46 cont) and 91 constraints
STATISTICS
  Problem name     : bell5.lp
  Variables        : 104 (30 binary, 28 integer, 0 implicit integer, 46 continuous)
  Constraints      : 0 initial, 91 maximal
OBJECTIVE
  Sense            : minimize
VARIABLES
  [binary] <x0>: obj=43000, original bounds=[0,1]
  [binary] <x1>: obj=0, original bounds=[0,1]
  [binary] <x2>: obj=0, original bounds=[0,1]
  [binary] <x3>: obj=0, original bounds=[0,1]
  [binary] <x4>: obj=0, original bounds=[0,1]
  [binary] <x5>: obj=0, original bounds=[0,1]
  [binary] <x6>: obj=0, original bounds=[0,1]
  [binary] <x7>: obj=0, original bounds=[0,1]
  [binary] <x8>: obj=0, original bounds=[0,1]
  [binary] <x9>: obj=0, original bounds=[0,1]
  [binary] <x10>: obj=0, original bounds=[0,1]
  [binary] <x11>: obj=0, original bounds=[0,1]
  [binary] <x12>: obj=0, original bounds=[0,1]
  [binary] <x13>: obj=0, original bounds=[0,1]
  [binary] <x14>: obj=0, original bounds=[0,1]
  [binary] <x15>: obj=0, original bounds=[0,1]
  [binary] <x16>: obj=0, original bounds=[0,1]
  [binary] <x17>: obj=43000, original bounds=[0,1]
  [binary] <x18>: obj=43000, original bounds=[0,1]
  [binary] <x19>: obj=43000, original bounds=[0,1]
  [binary] <x20>: obj=43000, original bounds=[0,1]
  [binary] <x21>: obj=43000, original bounds=[0,1]
  [binary] <x22>: obj=43000, original bounds=[0,1]
  [binary] <x23>: obj=43000, original bounds=[0,1]
  [binary] <x24>: obj=43000, original bounds=[0,1]
  [binary] <x25>: obj=43000, original bounds=[0,1]
  [binary] <x26>: obj=43000, original bounds=[0,1]
  [binary] <x27>: obj=43000, original bounds=[0,1]
  [binary] <x28>: obj=43000, original bounds=[0,1]
  [binary] <x29>: obj=43000, original bounds=[0,1]
  [integer] <x30>: obj=10000, original bounds=[0,100]
  [integer] <x31>: obj=10000, original bounds=[0,100]
  [integer] <x32>: obj=10000, original bounds=[0,100]
  [integer] <x33>: obj=10000, original bounds=[0,100]
  [integer] <x34>: obj=10000, original bounds=[0,100]
  [integer] <x35>: obj=10000, original bounds=[0,1000]
  [integer] <x36>: obj=10000, original bounds=[0,1000]
  [integer] <x37>: obj=10000, original bounds=[0,1000]
  [integer] <x38>: obj=10000, original bounds=[0,1000]
  [integer] <x39>: obj=10000, original bounds=[0,1000]
  [integer] <x40>: obj=10000, original bounds=[0,1000]
  [integer] <x41>: obj=10000, original bounds=[0,1000]
  [integer] <x42>: obj=10000, original bounds=[0,1000]
  [integer] <x43>: obj=58000, original bounds=[0,1000]
  [integer] <x44>: obj=58000, original bounds=[0,1000]
  [integer] <x45>: obj=58000, original bounds=[0,1000]
  [integer] <x46>: obj=59000, original bounds=[0,1000]
  [integer] <x47>: obj=59000, original bounds=[0,1000]
  [integer] <x48>: obj=59000, original bounds=[0,1000]
  [integer] <x49>: obj=60000, original bounds=[0,10000]
  [integer] <x50>: obj=59000, original bounds=[0,10000]
  [integer] <x51>: obj=59000, original bounds=[0,10000]
  [integer] <x52>: obj=59000, original bounds=[0,10000]
  [integer] <x53>: obj=59000, original bounds=[0,10000]
  [integer] <x54>: obj=58000, original bounds=[0,10000]
  [integer] <x55>: obj=58000, original bounds=[0,10000]
  [integer] <x56>: obj=58000, original bounds=[0,10000]
  [integer] <x57>: obj=10000, original bounds=[0,100]
  [continuous] <x58>: obj=2.45645, original bounds=[0,+inf]
  [continuous] <x59>: obj=2.03962, original bounds=[0,+inf]
  [continuous] <x60>: obj=1.41693, original bounds=[0,+inf]
  [continuous] <x61>: obj=5.02605, original bounds=[0,+inf]
  [continuous] <x62>: obj=5.80423, original bounds=[0,+inf]
  [continuous] <x63>: obj=3.66095, original bounds=[0,+inf]
  [continuous] <x64>: obj=3.9201, original bounds=[0,+inf]
  [continuous] <x65>: obj=4.8034, original bounds=[0,+inf]
  [continuous] <x66>: obj=2.94336, original bounds=[0,+inf]
  [continuous] <x67>: obj=3.60182, original bounds=[0,+inf]
  [continuous] <x68>: obj=1.87245, original bounds=[0,+inf]
  [continuous] <x69>: obj=3.03169, original bounds=[0,+inf]
  [continuous] <x70>: obj=0.53655, original bounds=[0,+inf]
  [continuous] <x71>: obj=2.555, original bounds=[0,+inf]
  [continuous] <x72>: obj=2.07977, original bounds=[0,+inf]
  [continuous] <x73>: obj=0.1825, original bounds=[0,+inf]
  [continuous] <x74>: obj=0, original bounds=[0,+inf]
  [continuous] <x75>: obj=58.0423, original bounds=[0,+inf]
  [continuous] <x76>: obj=36.6095, original bounds=[0,+inf]
  [continuous] <x77>: obj=39.201, original bounds=[0,+inf]
  [continuous] <x78>: obj=48.034, original bounds=[0,+inf]
  [continuous] <x79>: obj=29.4336, original bounds=[0,+inf]
  [continuous] <x80>: obj=36.0182, original bounds=[0,+inf]
  [continuous] <x81>: obj=18.7245, original bounds=[0,+inf]
  [continuous] <x82>: obj=30.3169, original bounds=[0,+inf]
  [continuous] <x83>: obj=5.3655, original bounds=[0,+inf]
  [continuous] <x84>: obj=25.55, original bounds=[0,+inf]
  [continuous] <x85>: obj=20.7977, original bounds=[0,+inf]
  [continuous] <x86>: obj=24.5645, original bounds=[0,+inf]
  [continuous] <x87>: obj=20.3962, original bounds=[0,+inf]
  [continuous] <x88>: obj=14.1693, original bounds=[0,+inf]
  [continuous] <x89>: obj=50.2605, original bounds=[0,+inf]
  [continuous] <x90>: obj=0, original bounds=[0,+inf]
  [continuous] <x91>: obj=0, original bounds=[0,+inf]
  [continuous] <x92>: obj=0, original bounds=[0,+inf]
  [continuous] <x93>: obj=0, original bounds=[0,+inf]
  [continuous] <x94>: obj=0, original bounds=[0,+inf]
  [continuous] <x95>: obj=0, original bounds=[0,+inf]
  [continuous] <x96>: obj=0, original bounds=[0,+inf]
  [continuous] <x97>: obj=0, original bounds=[0,+inf]
  [continuous] <x98>: obj=0, original bounds=[0,+inf]
  [continuous] <x99>: obj=0, original bounds=[0,+inf]
  [continuous] <x100>: obj=0, original bounds=[0,+inf]
  [continuous] <x101>: obj=0, original bounds=[0,+inf]
  [continuous] <x102>: obj=0, original bounds=[0,+inf]
  [continuous] <x103>: obj=1.825, original bounds=[0,+inf]
CONSTRAINTS
  [linear] <c0>:  -<x1>[B] +<x2>[B] <= 0;
  [linear] <c1>:  -<x2>[B] +<x3>[B] <= 0;
  [linear] <c2>:  -<x3>[B] +<x4>[B] <= 0;
  [linear] <c3>:  -<x4>[B] +<x5>[B] <= 0;
  [linear] <c4>:  -<x5>[B] +<x6>[B] <= 0;
  [linear] <c5>:  -<x5>[B] +<x7>[B] <= 0;
  [linear] <c6>:  -<x7>[B] +<x8>[B] <= 0;
  [linear] <c7>:  -<x8>[B] +<x9>[B] <= 0;
  [linear] <c8>:  -<x4>[B] +<x10>[B] <= 0;
  [linear] <c9>:  -<x10>[B] +<x11>[B] <= 0;
  [linear] <c10>:  -<x11>[B] +<x12>[B] <= 0;
  [linear] <c11>:  -<x2>[B] +<x13>[B] <= 0;
  [linear] <c12>:  -<x13>[B] +<x14>[B] <= 0;
  [linear] <c13>:  -<x14>[B] +<x15>[B] <= 0;
  [linear] <c14>:  -<x1>[B] +<x16>[B] <= 0;
  [linear] <c15>:  -20<x1>[B] +<x17>[B] +<x56>[I] <= 0;
  [linear] <c16>:  -20<x2>[B] +<x18>[B] +<x55>[I] <= 0;
  [linear] <c17>:  -20<x3>[B] +<x19>[B] +<x54>[I] <= 0;
  [linear] <c18>:  -20<x4>[B] +<x20>[B] +<x53>[I] <= 0;
  [linear] <c19>:  -20<x5>[B] +<x21>[B] +<x52>[I] <= 0;
  [linear] <c20>:  -20<x6>[B] +<x22>[B] +<x51>[I] <= 0;
  [linear] <c21>:  -20<x7>[B] +<x23>[B] +<x50>[I] <= 0;
  [linear] <c22>:  -20<x9>[B] +<x24>[B] +<x49>[I] <= 0;
  [linear] <c23>:  -20<x10>[B] +<x25>[B] +<x48>[I] <= 0;
  [linear] <c24>:  -20<x11>[B] +<x26>[B] +<x47>[I] <= 0;
  [linear] <c25>:  -20<x12>[B] +<x27>[B] +<x46>[I] <= 0;
  [linear] <c26>:  -20<x13>[B] +<x28>[B] +<x45>[I] <= 0;
  [linear] <c27>:  -20<x14>[B] +<x29>[B] +<x44>[I] <= 0;
  [linear] <c28>:  -20<x16>[B] +<x0>[B] +<x43>[I] <= 0;
  [linear] <c29>:  -672<x17>[B] -1344<x56>[I] -<x58>[C] +<x59>[C] +<x73>[C] +<x90>[C] <= 0;
  [linear] <c30>:  -672<x18>[B] -1344<x55>[I] -<x59>[C] +<x60>[C] +<x70>[C] +<x91>[C] <= 0;
  [linear] <c31>:  -672<x19>[B] -1344<x54>[I] -<x60>[C] +<x61>[C] +<x92>[C] <= 0;
  [linear] <c32>:  -672<x20>[B] -1344<x53>[I] -<x61>[C] +<x62>[C] +<x67>[C] +<x93>[C] <= 0;
  [linear] <c33>:  -672<x21>[B] -1344<x52>[I] -<x62>[C] +<x63>[C] +<x64>[C] +<x94>[C] <= 0;
  [linear] <c34>:  -672<x22>[B] -1344<x51>[I] -<x63>[C] +<x95>[C] <= 0;
  [linear] <c35>:  -672<x23>[B] -1344<x50>[I] -<x64>[C] +<x65>[C] +<x96>[C] <= 0;
  [linear] <c36>:  -<x65>[C] +<x66>[C] <= 0;
  [linear] <c37>:  -672<x24>[B] -1344<x49>[I] -<x66>[C] +<x97>[C] <= 0;
  [linear] <c38>:  -672<x25>[B] -1344<x48>[I] -<x67>[C] +<x68>[C] +<x98>[C] <= 0;
  [linear] <c39>:  -672<x26>[B] -1344<x47>[I] -<x68>[C] +<x69>[C] +<x99>[C] <= 0;
  [linear] <c40>:  -672<x27>[B] -1344<x46>[I] -<x69>[C] +<x100>[C] <= 0;
  [linear] <c41>:  -672<x28>[B] -1344<x45>[I] -<x70>[C] +<x71>[C] +<x101>[C] <= 0;
  [linear] <c42>:  -672<x29>[B] -1344<x44>[I] -<x71>[C] +<x72>[C] +<x102>[C] <= 0;
  [linear] <c43>:  -<x72>[C] <= 0;
  [linear] <c44>:  -672<x0>[B] -1344<x43>[I] -<x73>[C] +<x74>[C] <= 0;
  [linear] <c45>:  -24<x42>[I] +<x90>[C] <= 0;
  [linear] <c46>:  -24<x41>[I] +<x91>[C] <= 0;
  [linear] <c47>:  -24<x40>[I] +<x92>[C] <= 0;
  [linear] <c48>:  -24<x39>[I] +<x93>[C] <= 0;
  [linear] <c49>:  -24<x38>[I] +<x94>[C] <= 0;
  [linear] <c50>:  -24<x37>[I] +<x95>[C] <= 0;
  [linear] <c51>:  -24<x36>[I] +<x96>[C] <= 0;
  [linear] <c52>:  -24<x35>[I] +<x97>[C] <= 0;
  [linear] <c53>:  -24<x34>[I] +<x98>[C] <= 0;
  [linear] <c54>:  -24<x33>[I] +<x99>[C] <= 0;
  [linear] <c55>:  -24<x32>[I] +<x100>[C] <= 0;
  [linear] <c56>:  -24<x31>[I] +<x101>[C] <= 0;
  [linear] <c57>:  -24<x30>[I] +<x102>[C] <= 0;
  [linear] <c58>:  -24<x57>[I] +<x74>[C] <= 0;
  [linear] <c59>:  -<x86>[C] +<x87>[C] +<x103>[C] -<x90>[C] <= -800;
  [linear] <c60>:  -<x87>[C] +<x88>[C] +<x83>[C] -<x91>[C] <= -3100;
  [linear] <c61>:  -<x88>[C] +<x89>[C] -<x92>[C] <= -50;
  [linear] <c62>:  -<x89>[C] +<x75>[C] +<x80>[C] -<x93>[C] <= -40;
  [linear] <c63>:  -<x75>[C] +<x76>[C] +<x77>[C] -<x94>[C] <= -900;
  [linear] <c64>:  -<x76>[C] -<x95>[C] <= -40;
  [linear] <c65>:  -<x77>[C] +<x78>[C] -<x96>[C] <= -7150;
  [linear] <c66>:  -<x78>[C] +<x79>[C] <= -4800;
  [linear] <c67>:  -<x79>[C] -<x97>[C] <= -3000;
  [linear] <c68>:  -<x80>[C] +<x81>[C] -<x98>[C] <= -250;
  [linear] <c69>:  -<x81>[C] +<x82>[C] -<x99>[C] <= -400;
  [linear] <c70>:  -<x82>[C] -<x100>[C] <= -1000;
  [linear] <c71>:  -<x83>[C] +<x84>[C] -<x101>[C] <= -4000;
  [linear] <c72>:  -<x84>[C] +<x85>[C] -<x102>[C] <= -90;
  [linear] <c73>:  -<x85>[C] <= -700;
  [linear] <c74>:  -<x103>[C] -<x74>[C] <= -24;
  [linear] <c75>: <x1>[B] +0.000833<x86>[C] +8.3e-05<x58>[C] <= 8;
  [linear] <c76>: <x2>[B] +0.000833<x87>[C] +8.3e-05<x59>[C] <= 8;
  [linear] <c77>: <x3>[B] +0.000833<x88>[C] +8.3e-05<x60>[C] <= 8;
  [linear] <c78>: <x4>[B] +0.000833<x89>[C] +8.3e-05<x61>[C] <= 8;
  [linear] <c79>: <x5>[B] +0.000833<x75>[C] +8.3e-05<x62>[C] <= 1;
  [linear] <c80>: <x6>[B] +0.000833<x76>[C] +8.3e-05<x63>[C] <= 1;
  [linear] <c81>: <x7>[B] +0.000833<x77>[C] +8.3e-05<x64>[C] <= 13;
  [linear] <c82>: <x8>[B] +0.000833<x78>[C] +8.3e-05<x65>[C] <= 13;
  [linear] <c83>: <x9>[B] +0.000833<x79>[C] +8.3e-05<x66>[C] <= 1;
  [linear] <c84>: <x10>[B] +0.000833<x80>[C] +8.3e-05<x67>[C] <= 1;
  [linear] <c85>: <x11>[B] +0.000833<x81>[C] +8.3e-05<x68>[C] <= 13;
  [linear] <c86>: <x12>[B] +0.000833<x82>[C] +8.3e-05<x69>[C] <= 13;
  [linear] <c87>: <x13>[B] +0.000833<x83>[C] +8.3e-05<x70>[C] <= 8;
  [linear] <c88>: <x14>[B] +0.000833<x84>[C] +8.3e-05<x71>[C] <= 8;
  [linear] <c89>: <x15>[B] +0.000833<x85>[C] +8.3e-05<x72>[C] <= 2;
  [linear] <c90>: <x16>[B] +0.000833<x103>[C] +8.3e-05<x73>[C] <= 2;
END
read solution <bell5.sol> ...

check the feasibility of <bell5.sol> for problem <bell5.lp> ...

The solution <bell5.sol> is optimal to <bell5.lp> 

the value k is 10
The objective value of solution <bell5.sol>  is 8966406.491520 

The value of alpha is 89664064.915200 

  [binary] <d16>: obj=43000, original bounds=[0,1]
  [binary] <c1>: obj=0, original bounds=[0,1]
  [binary] <c2>: obj=0, original bounds=[0,1]
  [binary] <c3>: obj=0, original bounds=[0,1]
  [binary] <c4>: obj=0, original bounds=[0,1]
  [binary] <c5>: obj=0, original bounds=[0,1]
  [binary] <c6>: obj=0, original bounds=[0,1]
  [binary] <c7>: obj=0, original bounds=[0,1]
  [binary] <c8>: obj=0, original bounds=[0,1]
  [binary] <c9>: obj=0, original bounds=[0,1]
  [binary] <c10>: obj=0, original bounds=[0,1]
  [binary] <c11>: obj=0, original bounds=[0,1]
  [binary] <c12>: obj=0, original bounds=[0,1]
  [binary] <c13>: obj=0, original bounds=[0,1]
  [binary] <c14>: obj=0, original bounds=[0,1]
  [binary] <c15>: obj=0, original bounds=[0,1]
  [binary] <c16>: obj=0, original bounds=[0,1]
  [binary] <d1>: obj=43000, original bounds=[0,1]
  [binary] <d2>: obj=43000, original bounds=[0,1]
  [binary] <d3>: obj=43000, original bounds=[0,1]
  [binary] <d4>: obj=43000, original bounds=[0,1]
  [binary] <d5>: obj=43000, original bounds=[0,1]
  [binary] <d6>: obj=43000, original bounds=[0,1]
  [binary] <d7>: obj=43000, original bounds=[0,1]
  [binary] <d9>: obj=43000, original bounds=[0,1]
  [binary] <d10>: obj=43000, original bounds=[0,1]
  [binary] <d11>: obj=43000, original bounds=[0,1]
  [binary] <d12>: obj=43000, original bounds=[0,1]
  [binary] <d13>: obj=43000, original bounds=[0,1]
  [binary] <d14>: obj=43000, original bounds=[0,1]
  [integer] <g14>: obj=10000, original bounds=[0,100]
  [integer] <g13>: obj=10000, original bounds=[0,100]
  [integer] <g12>: obj=10000, original bounds=[0,100]
  [integer] <g11>: obj=10000, original bounds=[0,100]
  [integer] <g10>: obj=10000, original bounds=[0,100]
  [integer] <g9>: obj=10000, original bounds=[0,1000]
  [integer] <g7>: obj=10000, original bounds=[0,1000]
  [integer] <g6>: obj=10000, original bounds=[0,1000]
  [integer] <g5>: obj=10000, original bounds=[0,1000]
  [integer] <g4>: obj=10000, original bounds=[0,1000]
  [integer] <g3>: obj=10000, original bounds=[0,1000]
  [integer] <g2>: obj=10000, original bounds=[0,1000]
  [integer] <g1>: obj=10000, original bounds=[0,1000]
  [integer] <h16>: obj=58000, original bounds=[0,1000]
  [integer] <h14>: obj=58000, original bounds=[0,1000]
  [integer] <h13>: obj=58000, original bounds=[0,1000]
  [integer] <h12>: obj=59000, original bounds=[0,1000]
  [integer] <h11>: obj=59000, original bounds=[0,1000]
  [integer] <h10>: obj=59000, original bounds=[0,1000]
  [integer] <h9>: obj=60000, original bounds=[0,10000]
  [integer] <h7>: obj=59000, original bounds=[0,10000]
  [integer] <h6>: obj=59000, original bounds=[0,10000]
  [integer] <h5>: obj=59000, original bounds=[0,10000]
  [integer] <h4>: obj=59000, original bounds=[0,10000]
  [integer] <h3>: obj=58000, original bounds=[0,10000]
  [integer] <h2>: obj=58000, original bounds=[0,10000]
  [integer] <h1>: obj=58000, original bounds=[0,10000]
  [integer] <g16>: obj=10000, original bounds=[0,100]
  [continuous] <b1>: obj=2.45645, original bounds=[0,+inf]
  [continuous] <b2>: obj=2.03962, original bounds=[0,+inf]
  [continuous] <b3>: obj=1.41693, original bounds=[0,+inf]
  [continuous] <b4>: obj=5.02605, original bounds=[0,+inf]
  [continuous] <b5>: obj=5.80423, original bounds=[0,+inf]
  [continuous] <b6>: obj=3.66095, original bounds=[0,+inf]
  [continuous] <b7>: obj=3.9201, original bounds=[0,+inf]
  [continuous] <b8>: obj=4.8034, original bounds=[0,+inf]
  [continuous] <b9>: obj=2.94336, original bounds=[0,+inf]
  [continuous] <b10>: obj=3.60182, original bounds=[0,+inf]
  [continuous] <b11>: obj=1.87245, original bounds=[0,+inf]
  [continuous] <b12>: obj=3.03169, original bounds=[0,+inf]
  [continuous] <b13>: obj=0.53655, original bounds=[0,+inf]
  [continuous] <b14>: obj=2.555, original bounds=[0,+inf]
  [continuous] <b15>: obj=2.07977, original bounds=[0,+inf]
  [continuous] <b16>: obj=0.1825, original bounds=[0,+inf]
  [continuous] <f16>: obj=0, original bounds=[0,+inf]
  [continuous] <a5>: obj=58.0423, original bounds=[0,+inf]
  [continuous] <a6>: obj=36.6095, original bounds=[0,+inf]
  [continuous] <a7>: obj=39.201, original bounds=[0,+inf]
  [continuous] <a8>: obj=48.034, original bounds=[0,+inf]
  [continuous] <a9>: obj=29.4336, original bounds=[0,+inf]
  [continuous] <a10>: obj=36.0182, original bounds=[0,+inf]
  [continuous] <a11>: obj=18.7245, original bounds=[0,+inf]
  [continuous] <a12>: obj=30.3169, original bounds=[0,+inf]
  [continuous] <a13>: obj=5.3655, original bounds=[0,+inf]
  [continuous] <a14>: obj=25.55, original bounds=[0,+inf]
  [continuous] <a15>: obj=20.7977, original bounds=[0,+inf]
  [continuous] <a1>: obj=24.5645, original bounds=[0,+inf]
  [continuous] <a2>: obj=20.3962, original bounds=[0,+inf]
  [continuous] <a3>: obj=14.1693, original bounds=[0,+inf]
  [continuous] <a4>: obj=50.2605, original bounds=[0,+inf]
  [continuous] <f1>: obj=0, original bounds=[0,+inf]
  [continuous] <f2>: obj=0, original bounds=[0,+inf]
  [continuous] <f3>: obj=0, original bounds=[0,+inf]
  [continuous] <f4>: obj=0, original bounds=[0,+inf]
  [continuous] <f5>: obj=0, original bounds=[0,+inf]
  [continuous] <f6>: obj=0, original bounds=[0,+inf]
  [continuous] <f7>: obj=0, original bounds=[0,+inf]
  [continuous] <f9>: obj=0, original bounds=[0,+inf]
  [continuous] <f10>: obj=0, original bounds=[0,+inf]
  [continuous] <f11>: obj=0, original bounds=[0,+inf]
  [continuous] <f12>: obj=0, original bounds=[0,+inf]
  [continuous] <f13>: obj=0, original bounds=[0,+inf]
  [continuous] <f14>: obj=0, original bounds=[0,+inf]
  [continuous] <a16>: obj=1.825, original bounds=[0,+inf]
Start to test variable y
  [integer] <y_0>: obj=1, original bounds=[0,+inf]
  [integer] <y_1>: obj=1, original bounds=[0,+inf]
  [integer] <y_2>: obj=1, original bounds=[0,+inf]
  [integer] <y_3>: obj=1, original bounds=[0,+inf]
  [integer] <y_4>: obj=1, original bounds=[0,+inf]
  [integer] <y_5>: obj=1, original bounds=[0,+inf]
  [integer] <y_6>: obj=1, original bounds=[0,+inf]
  [integer] <y_7>: obj=1, original bounds=[0,+inf]
  [integer] <y_8>: obj=1, original bounds=[0,+inf]
  [integer] <y_9>: obj=1, original bounds=[0,+inf]
  [integer] <y_10>: obj=1, original bounds=[0,+inf]
  [integer] <y_11>: obj=1, original bounds=[0,+inf]
  [integer] <y_12>: obj=1, original bounds=[0,+inf]
  [integer] <y_13>: obj=1, original bounds=[0,+inf]
  [integer] <y_14>: obj=1, original bounds=[0,+inf]
  [integer] <y_15>: obj=1, original bounds=[0,+inf]
  [integer] <y_16>: obj=1, original bounds=[0,+inf]
  [integer] <y_17>: obj=1, original bounds=[0,+inf]
  [integer] <y_18>: obj=1, original bounds=[0,+inf]
  [integer] <y_19>: obj=1, original bounds=[0,+inf]
  [integer] <y_20>: obj=1, original bounds=[0,+inf]
  [integer] <y_21>: obj=1, original bounds=[0,+inf]
  [integer] <y_22>: obj=1, original bounds=[0,+inf]
  [integer] <y_23>: obj=1, original bounds=[0,+inf]
  [integer] <y_24>: obj=1, original bounds=[0,+inf]
  [integer] <y_25>: obj=1, original bounds=[0,+inf]
  [integer] <y_26>: obj=1, original bounds=[0,+inf]
  [integer] <y_27>: obj=1, original bounds=[0,+inf]
  [integer] <y_28>: obj=1, original bounds=[0,+inf]
  [integer] <y_29>: obj=1, original bounds=[0,+inf]
  [integer] <y_30>: obj=1, original bounds=[0,+inf]
  [integer] <y_31>: obj=1, original bounds=[0,+inf]
  [integer] <y_32>: obj=1, original bounds=[0,+inf]
  [integer] <y_33>: obj=1, original bounds=[0,+inf]
  [integer] <y_34>: obj=1, original bounds=[0,+inf]
  [integer] <y_35>: obj=1, original bounds=[0,+inf]
  [integer] <y_36>: obj=1, original bounds=[0,+inf]
  [integer] <y_37>: obj=1, original bounds=[0,+inf]
  [integer] <y_38>: obj=1, original bounds=[0,+inf]
  [integer] <y_39>: obj=1, original bounds=[0,+inf]
  [integer] <y_40>: obj=1, original bounds=[0,+inf]
  [integer] <y_41>: obj=1, original bounds=[0,+inf]
  [integer] <y_42>: obj=1, original bounds=[0,+inf]
  [integer] <y_43>: obj=1, original bounds=[0,+inf]
  [integer] <y_44>: obj=1, original bounds=[0,+inf]
  [integer] <y_45>: obj=1, original bounds=[0,+inf]
  [integer] <y_46>: obj=1, original bounds=[0,+inf]
  [integer] <y_47>: obj=1, original bounds=[0,+inf]
  [integer] <y_48>: obj=1, original bounds=[0,+inf]
  [integer] <y_49>: obj=1, original bounds=[0,+inf]
  [integer] <y_50>: obj=1, original bounds=[0,+inf]
  [integer] <y_51>: obj=1, original bounds=[0,+inf]
  [integer] <y_52>: obj=1, original bounds=[0,+inf]
  [integer] <y_53>: obj=1, original bounds=[0,+inf]
  [integer] <y_54>: obj=1, original bounds=[0,+inf]
  [integer] <y_55>: obj=1, original bounds=[0,+inf]
  [integer] <y_56>: obj=1, original bounds=[0,+inf]
  [integer] <y_57>: obj=1, original bounds=[0,+inf]
  [integer] <y_58>: obj=1, original bounds=[0,+inf]
  [integer] <y_59>: obj=1, original bounds=[0,+inf]
  [integer] <y_60>: obj=1, original bounds=[0,+inf]
  [integer] <y_61>: obj=1, original bounds=[0,+inf]
  [integer] <y_62>: obj=1, original bounds=[0,+inf]
  [integer] <y_63>: obj=1, original bounds=[0,+inf]
  [integer] <y_64>: obj=1, original bounds=[0,+inf]
  [integer] <y_65>: obj=1, original bounds=[0,+inf]
  [integer] <y_66>: obj=1, original bounds=[0,+inf]
  [integer] <y_67>: obj=1, original bounds=[0,+inf]
This is the end of test variable y
Optimized version of memory shell linked - no memory leakage check available.
